\ SCIP STATISTICS
\   Problem name     : t_vaccinebp
\   Variables        : 306 (8 binary, 0 integer, 0 implicit integer, 298 continuous)
\   Constraints      : 63
\   Obj. scale       : 1
\   Obj. offset      : 0
Minimize
 Obj: +1.76197314026085 t_ww_2 +2.23802685973915 t_ww_3 +1.76197314026085 t_ww_4 +2.23802685973915 t_ww_5
      +1.76197314026085 t_ww_6 +2.23802685973915 t_ww_7 +1.76197314026085 t_ww_8 +2.23802685973915 t_ww_9
      +1.76197314026085 t_ww_10 +2.23802685973915 t_ww_11 +1.76197314026085 t_ww_12 +2.23802685973915 t_ww_13
      +1.76197314026085 t_ww_14 +2.23802685973915 t_ww_15 +55.0616606331516 Alpha2_0 +69.9383393668485 Alpha2_1
      +55.0616606331516 Alpha3_0 +69.9383393668485 Alpha3_1 +55.0616606331516 Alpha3_2 +69.9383393668485 Alpha3_3
      +55.0616606331516 Alpha4_0 +41.9630036201091 Alpha4_1 +55.0616606331516 Alpha4_2 +41.9630036201091 Alpha4_3
      +55.0616606331516 Alpha4_4 +41.9630036201091 Alpha4_5 +55.0616606331516 Alpha4_6 +41.9630036201091 Alpha4_7
      +55.0616606331516 Alpha2_0 +41.9630036201091 Alpha2_1 +33.0369963798909 Alpha3_0 +41.9630036201091 Alpha3_1
      +33.0369963798909 Alpha3_2 +41.9630036201091 Alpha3_3 +19.5827350227176 Alpha4_3 +19.5827350227176 Alpha4_7
      +33.0369963798909 Alpha2_0 +19.5827350227176 Alpha2_1 +33.0369963798909 Alpha3_0 +19.5827350227176 Alpha3_1
      +33.0369963798909 Alpha3_2 +19.5827350227176 Alpha3_3 +33.0369963798909 Alpha2_0 +19.5827350227176 Alpha2_1
      +15.4172649772824 Alpha3_0 +19.5827350227176 Alpha3_3 +15.4172649772824 Alpha2_0 +15.4172649772824 Alpha2_0
      +15.4172649772824 Alpha3_2 +39.6443956558691 Alpha2_0 +55.0616606331516 Alpha3_0 +41.9630036201091 Alpha3_1
      +39.6443956558691 Alpha2_0 +19.5827350227176 Alpha3_1 +17.6197314026085 Alpha2_0 +17.6197314026085 Alpha2_0
      +1.76197314026085 Alpha2_0 +1.76197314026085 Alpha2_0 +50.3556043441309 Alpha2_1 +55.0616606331516 Alpha3_2
      +22.3802685973915 Alpha2_1 +30.2133626064785 Alpha2_1 +33.0369963798909 Alpha3_2 +2.23802685973915 Alpha2_1
      +39.6443956558691 Alpha3_0 +15.4172649772824 Alpha4_0 +17.6197314026085 Alpha3_0 +3.08345299545649 Alpha2_0
      +3.08345299545649 Alpha2_0 +42.7278486513256 Alpha2_0 +33.0369963798909 Alpha3_0 +20.703184398065 Alpha2_0
      +3.08345299545649 Alpha2_0 +3.91654700454351 Alpha2_1 +3.91654700454351 Alpha2_1 +3.91654700454351 Alpha2_1
      +22.0246642532606 Alpha3_0 +50.3556043441309 Alpha3_1 +33.0369963798909 Alpha4_2 +22.3802685973915 Alpha3_1
      +27.9753357467394 Alpha3_1 +15.4172649772824 Alpha4_2 +1.11901342986958 Alpha3_1 +39.6443956558691 Alpha3_2
      +33.0369963798909 Alpha4_4 +19.5827350227176 Alpha4_5 +17.6197314026085 Alpha3_2 +22.0246642532606 Alpha3_2
      +15.4172649772824 Alpha4_4 +3.08345299545649 Alpha3_0 +3.08345299545649 Alpha3_0 +50.3556043441309 Alpha3_3
      +33.0369963798909 Alpha4_6 +22.3802685973915 Alpha3_3 +1.76197314026085 Alpha3_0 +1.76197314026085 Alpha3_0
      +0.440493285065212 Alpha3_0 +0.440493285065212 Alpha3_0 +3.91654700454351 Alpha3_1 +3.91654700454351 Alpha3_1
      +3.91654700454351 Alpha3_1 +0.880986570130425 Alpha3_2 +3.91654700454351 Alpha3_3 +3.91654700454351 Alpha3_3
      +2.23802685973915 Alpha3_1 +27.9753357467394 Alpha3_3 +15.4172649772824 Alpha4_6 +17.6197314026085 Alpha4_4
      +0.559506714934788 Alpha3_1 +0.440493285065212 Alpha3_2 +1.67852014480436 Alpha3_1 +1.67852014480436 Alpha3_1
      +1.67852014480436 Alpha3_3 +17.6197314026085 Alpha4_0 +19.5827350227176 Alpha4_1 +27.9753357467394 Alpha4_7
      +1.32147985519564 Alpha3_2 +6.16690599091297 Alpha2_0 +6.16690599091297 Alpha2_0 +45.8113016467821 Alpha2_0
      +6.16690599091297 Alpha2_0 +0.559506714934788 Alpha3_3 +3.08345299545649 Alpha3_2 +3.08345299545649 Alpha3_2
      +3.08345299545649 Alpha3_2 +17.6197314026085 Alpha4_2 +22.0246642532606 Alpha4_2 +0.880986570130425 Alpha3_0
      +27.9753357467394 Alpha3_3 +1.11901342986958 Alpha3_3 +1.11901342986958 Alpha3_3 +1.32147985519564 Alpha3_0
      +1.32147985519564 Alpha3_0 +23.7866373935215 Alpha2_0 +22.0246642532606 Alpha4_4 +3.08345299545649 Alpha3_2
      +22.0246642532606 Alpha4_0 +1.76197314026085 Alpha3_2 +1.76197314026085 Alpha3_2 +1.76197314026085 Alpha3_2
      +3.5239462805217 Alpha2_0 +3.5239462805217 Alpha2_0 +3.5239462805217 Alpha2_0 +17.6197314026085 Alpha4_6
      +22.0246642532606 Alpha4_6 +2.20246642532606 Alpha2_0 +2.20246642532606 Alpha2_0 +30.2133626064785 Alpha3_3
      +2.23802685973915 Alpha3_3 +1.11901342986958 Alpha3_1 +0.440493285065212 Alpha4_2 +0.440493285065212 Alpha4_2
      +0.559506714934788 Alpha3_3 +27.9753357467394 Alpha4_3 +27.9753357467394 Alpha4_1 +1.32147985519564 Alpha3_2
      +3.91654700454351 Alpha3_3 +0.880986570130425 Alpha3_2 +0.440493285065212 Alpha3_2 +0.559506714934788 Alpha4_7
      +0.559506714934788 Alpha4_3 +0.559506714934788 Alpha4_3 +27.9753357467394 Alpha4_5 +0.440493285065212 Alpha4_6
      +0.440493285065212 Alpha4_6 +1.11901342986958 Alpha4_1 +1.11901342986958 Alpha4_1 +0.880986570130425 Alpha3_0
      +3.08345299545649 Alpha4_0 +3.08345299545649 Alpha4_0 +50.3556043441309 Alpha3_3 +4.4760537194783 Alpha3_3
      +4.4760537194783 Alpha3_3 +3.5239462805217 Alpha2_0 +0.880986570130425 Alpha4_6 +0.880986570130425 Alpha4_6
      +0.559506714934788 Alpha4_1 +0.559506714934788 Alpha4_1 +3.91654700454351 Alpha4_7 +3.91654700454351 Alpha4_7
      +1.67852014480436 Alpha3_3 +1.76197314026085 Alpha4_0 +1.76197314026085 Alpha4_0 +3.91654700454351 Alpha4_1
      +3.91654700454351 Alpha4_1 +0.440493285065212 Alpha4_0 +0.440493285065212 Alpha4_0 +3.08345299545649 Alpha4_2
      +3.08345299545649 Alpha4_2 +0.559506714934788 Alpha3_1 +3.91654700454351 Alpha4_3 +3.91654700454351 Alpha4_3
      +1.76197314026085 Alpha3_0 +1.76197314026085 Alpha3_0 +1.76197314026085 Alpha3_0 +2.79753357467394 Alpha2_1
      +2.79753357467394 Alpha2_1 +2.79753357467394 Alpha3_3 +2.79753357467394 Alpha3_3 +1.11901342986958 Alpha4_7
      +1.11901342986958 Alpha4_7 +3.08345299545649 Alpha4_4 +3.08345299545649 Alpha4_4 +2.79753357467394 Alpha3_3
      +23.7866373935215 Alpha3_2 +3.91654700454351 Alpha4_5 +3.91654700454351 Alpha4_5 +23.7866373935215 Alpha3_2
      +2.20246642532606 Alpha3_2 +2.20246642532606 Alpha3_2 +0.559506714934788 Alpha4_5 +0.559506714934788 Alpha4_5
      +3.08345299545649 Alpha4_6 +3.08345299545649 Alpha4_6 +22.0246642532606 Alpha3_0 +2.20246642532606 Alpha3_0
      +2.20246642532606 Alpha3_0 +0.440493285065212 Alpha4_4 +1.76197314026085 Alpha3_2 +1.76197314026085 Alpha3_2
      +1.11901342986958 Alpha4_3 +1.11901342986958 Alpha4_3 +39.6443956558691 Alpha3_2 +3.5239462805217 Alpha3_2
      +3.5239462805217 Alpha3_2 +2.23802685973915 Alpha3_3 +2.23802685973915 Alpha3_3 +0.880986570130425 Alpha4_2
      +0.880986570130425 Alpha4_2 +30.2133626064785 Alpha3_1 +50.3556043441309 Alpha3_1 +4.4760537194783 Alpha3_1
      +4.4760537194783 Alpha3_1 +30.2133626064785 Alpha3_1 +2.79753357467394 Alpha3_1 +2.79753357467394 Alpha3_1
      +2.79753357467394 Alpha3_1 +2.23802685973915 Alpha3_1 +2.23802685973915 Alpha3_1 +2.23802685973915 Alpha3_1
      +2.23802685973915 Alpha3_1 +22.0246642532606 Alpha3_2 +1.76197314026085 Alpha3_2 +2.20246642532606 Alpha3_2
      +2.20246642532606 Alpha3_2 +2.20246642532606 Alpha3_2 +1.11901342986958 Alpha4_5 +1.11901342986958 Alpha4_5
      +4.4760537194783 Alpha3_1 +0.880986570130425 Alpha4_4 +0.880986570130425 Alpha4_4 +0.880986570130425 Alpha4_0
      +0.880986570130425 Alpha4_0 +2.23802685973915 Alpha3_3 +2.23802685973915 Alpha3_3 +23.7866373935215 Alpha2_0
      +2.64295971039127 Alpha2_0 +2.64295971039127 Alpha2_0 +1.67852014480436 Alpha4_7 +1.67852014480436 Alpha4_7
      +2.79753357467394 Alpha3_3 +2.79753357467394 Alpha3_3 +2.79753357467394 Alpha3_3 +1.32147985519564 Alpha4_6
      +1.32147985519564 Alpha4_6 +2.64295971039127 Alpha2_0 +1.67852014480436 Alpha4_3 +1.67852014480436 Alpha4_3
      +2.64295971039127 Alpha3_2 +2.64295971039127 Alpha3_2 +2.64295971039127 Alpha3_2 +1.67852014480436 Alpha4_1
      +1.67852014480436 Alpha4_1 +1.32147985519564 Alpha4_2 +1.32147985519564 Alpha4_2 +2.64295971039127 Alpha2_0
      +2.64295971039127 Alpha3_2 +3.35704028960873 Alpha3_3 +3.35704028960873 Alpha3_3 +2.79753357467394 Alpha3_1
      +27.9753357467394 Alpha3_1 +2.79753357467394 Alpha3_1 +2.79753357467394 Alpha3_1
Subject to
 sh2_0_0: +4 t_Z0 +4 t_ww_2 +150 Alpha2_0 +100 Alpha2_0 +50 Alpha2_0 +100 Alpha2_0 +50 Alpha2_0 +5 Alpha2_0
  +10 Alpha2_0 +20 Alpha2_0 +55 Alpha2_0 +10 Alpha2_0 +6 Alpha2_0 +7 Alpha2_0 >= +3
 sh2_0_1: +4 t_Z1 +4 t_ww_2 +150 Alpha2_0 +100 Alpha2_0 +50 Alpha2_0 +100 Alpha2_0 +50 Alpha2_0 +5 Alpha2_0
  +10 Alpha2_0 +20 Alpha2_0 +55 Alpha2_0 +10 Alpha2_0 +6 Alpha2_0 +7 Alpha2_0 >= +3
 sh2_0_2: +4 t_Z2 +4 t_ww_2 +150 Alpha2_0 +100 Alpha2_0 +50 Alpha2_0 +100 Alpha2_0 +50 Alpha2_0 +5 Alpha2_0
  +10 Alpha2_0 +20 Alpha2_0 +55 Alpha2_0 +10 Alpha2_0 +6 Alpha2_0 +7 Alpha2_0 >= +3
 sh2_0_3: +4 t_Z3 +4 t_ww_2 +150 Alpha2_0 +100 Alpha2_0 +50 Alpha2_0 +100 Alpha2_0 +50 Alpha2_0 +5 Alpha2_0
  +10 Alpha2_0 +20 Alpha2_0 +55 Alpha2_0 +10 Alpha2_0 +6 Alpha2_0 +7 Alpha2_0 >= +3
 sh2_1_0: +5 t_Z4 +5 t_ww_3 +50 Alpha2_1 +10 Alpha2_1 +6 Alpha2_1 >= +4
 sh2_1_1: +5 t_Z5 +5 t_ww_3 +50 Alpha2_1 +10 Alpha2_1 +6 Alpha2_1 >= +4
 sh2_1_2: +5 t_Z6 +5 t_ww_3 +50 Alpha2_1 +10 Alpha2_1 +6 Alpha2_1 >= +4
 sh2_1_3: +5 t_Z7 +5 t_ww_3 +50 Alpha2_1 +10 Alpha2_1 +6 Alpha2_1 >= +4
 sh3_0_0: +4 t_Z0 +4 t_ww_4 +150 Alpha2_0 +100 Alpha2_0 +50 Alpha2_0 +100 Alpha2_0 +150 Alpha3_0 +50 Alpha2_0
  +5 Alpha2_0 +110 Alpha2_0 +100 Alpha3_0 +60 Alpha2_0 +10 Alpha2_0 +10 Alpha3_0 +5 Alpha3_0 +1 Alpha3_0
  +120 Alpha2_0 +20 Alpha2_0 +3 Alpha3_0 +6 Alpha2_0 +2 Alpha3_0 +10 Alpha2_0 +4 Alpha3_0 +50 Alpha3_0
  +5 Alpha3_0 +55 Alpha2_0 +2 Alpha2_0 +7 Alpha2_0 >= +3
 sh3_0_1: +4 t_Z1 +4 t_ww_4 +150 Alpha2_0 +100 Alpha2_0 +50 Alpha2_0 +100 Alpha2_0 +150 Alpha3_0 +50 Alpha2_0
  +5 Alpha2_0 +110 Alpha2_0 +100 Alpha3_0 +60 Alpha2_0 +10 Alpha2_0 +10 Alpha3_0 +5 Alpha3_0 +1 Alpha3_0
  +120 Alpha2_0 +20 Alpha2_0 +3 Alpha3_0 +6 Alpha2_0 +2 Alpha3_0 +10 Alpha2_0 +4 Alpha3_0 +50 Alpha3_0
  +5 Alpha3_0 +55 Alpha2_0 +2 Alpha2_0 +7 Alpha2_0 >= +3
 sh3_1_0: +5 t_Z2 +5 t_ww_5 +150 Alpha2_0 +100 Alpha2_0 +50 Alpha2_0 +100 Alpha2_0 +100 Alpha3_1 +50 Alpha3_1
  +50 Alpha2_0 +5 Alpha2_0 +110 Alpha2_0 +60 Alpha2_0 +10 Alpha2_0 +10 Alpha3_1 +3 Alpha3_1 +120 Alpha2_0
  +20 Alpha2_0 +10 Alpha2_0 +6 Alpha2_0 +2 Alpha3_1 +10 Alpha2_0 +1 Alpha3_1 +55 Alpha3_1 +100 Alpha3_1
  +10 Alpha3_1 +6 Alpha3_1 +4 Alpha3_1 +55 Alpha2_0 +7 Alpha2_0 +7 Alpha2_0 +50 Alpha3_1 +5 Alpha3_1 >= +4
 sh3_1_1: +5 t_Z3 +5 t_ww_5 +150 Alpha2_0 +100 Alpha2_0 +50 Alpha2_0 +100 Alpha2_0 +100 Alpha3_1 +50 Alpha3_1
  +50 Alpha2_0 +5 Alpha2_0 +110 Alpha2_0 +60 Alpha2_0 +10 Alpha2_0 +10 Alpha3_1 +3 Alpha3_1 +120 Alpha2_0
  +20 Alpha2_0 +10 Alpha2_0 +6 Alpha2_0 +2 Alpha3_1 +10 Alpha2_0 +1 Alpha3_1 +55 Alpha3_1 +100 Alpha3_1
  +10 Alpha3_1 +6 Alpha3_1 +4 Alpha3_1 +55 Alpha2_0 +7 Alpha2_0 +7 Alpha2_0 +50 Alpha3_1 +5 Alpha3_1 >= +4
 sh3_2_0: +4 t_Z4 +4 t_ww_6 +150 Alpha2_1 +100 Alpha2_1 +50 Alpha2_1 +100 Alpha2_1 +150 Alpha3_2 +50 Alpha2_1
  +55 Alpha2_1 +100 Alpha3_2 +5 Alpha2_1 +10 Alpha2_1 +10 Alpha3_2 +5 Alpha3_2 +3 Alpha3_2 +2 Alpha3_2
  +1 Alpha3_2 +6 Alpha2_1 +55 Alpha3_2 +6 Alpha3_2 +100 Alpha3_2 +10 Alpha3_2 +50 Alpha3_2 +4 Alpha3_2
  +5 Alpha3_2 +6 Alpha3_2 >= +3
 sh3_2_1: +4 t_Z5 +4 t_ww_6 +150 Alpha2_1 +100 Alpha2_1 +50 Alpha2_1 +100 Alpha2_1 +150 Alpha3_2 +50 Alpha2_1
  +55 Alpha2_1 +100 Alpha3_2 +5 Alpha2_1 +10 Alpha2_1 +10 Alpha3_2 +5 Alpha3_2 +3 Alpha3_2 +2 Alpha3_2
  +1 Alpha3_2 +6 Alpha2_1 +55 Alpha3_2 +6 Alpha3_2 +100 Alpha3_2 +10 Alpha3_2 +50 Alpha3_2 +4 Alpha3_2
  +5 Alpha3_2 +6 Alpha3_2 >= +3
 sh3_3_0: +5 t_Z6 +5 t_ww_7 +150 Alpha2_1 +100 Alpha2_1 +50 Alpha2_1 +50 Alpha3_3 +100 Alpha2_1 +50 Alpha2_1
  +55 Alpha2_1 +5 Alpha2_1 +10 Alpha2_1 +50 Alpha3_3 +2 Alpha3_3 +1 Alpha3_3 +10 Alpha3_3 +100 Alpha3_3
  +10 Alpha3_3 +3 Alpha3_3 +6 Alpha2_1 +6 Alpha3_3 +4 Alpha3_3 +5 Alpha3_3 +6 Alpha3_3 >= +4
 sh3_3_1: +5 t_Z7 +5 t_ww_7 +150 Alpha2_1 +100 Alpha2_1 +50 Alpha2_1 +50 Alpha3_3 +100 Alpha2_1 +50 Alpha2_1
  +55 Alpha2_1 +5 Alpha2_1 +10 Alpha2_1 +50 Alpha3_3 +2 Alpha3_3 +1 Alpha3_3 +10 Alpha3_3 +100 Alpha3_3
  +10 Alpha3_3 +3 Alpha3_3 +6 Alpha2_1 +6 Alpha3_3 +4 Alpha3_3 +5 Alpha3_3 +6 Alpha3_3 >= +4
 sh4_0_0: +4 t_Z0 +150 Alpha3_0 +150 Alpha4_0 +100 Alpha3_0 +50 Alpha3_0 +100 Alpha3_0 +50 Alpha4_0 +50 Alpha3_0
  +50 Alpha3_0 +10 Alpha3_0 +5 Alpha3_0 +1 Alpha3_0 +50 Alpha4_0 +2 Alpha3_0 +3 Alpha3_0 +50 Alpha4_0
  +10 Alpha4_0 +5 Alpha4_0 +1 Alpha4_0 +4 Alpha3_0 +5 Alpha3_0 +2 Alpha4_0 >= +3
 sh4_1_0: +5 t_Z1 +5 t_ww_9 +150 Alpha3_0 +100 Alpha4_1 +100 Alpha3_0 +100 Alpha3_0 +50 Alpha3_0 +100 Alpha3_0
  +50 Alpha3_0 +50 Alpha3_0 +10 Alpha3_0 +5 Alpha3_0 +1 Alpha3_0 +50 Alpha4_1 +2 Alpha3_0 +3 Alpha3_0
  +50 Alpha4_1 +2 Alpha4_1 +1 Alpha4_1 +10 Alpha4_1 +4 Alpha3_0 +4 Alpha3_0 +5 Alpha3_0 +3 Alpha4_1 >= +4
 sh4_2_0: +4 t_Z2 +4 t_ww_10 +150 Alpha3_1 +150 Alpha4_2 +100 Alpha3_1 +50 Alpha3_1 +100 Alpha3_1 +100 Alpha4_2
  +50 Alpha3_1 +50 Alpha3_1 +50 Alpha4_2 +2 Alpha3_1 +10 Alpha3_1 +5 Alpha3_1 +1 Alpha3_1 +3 Alpha3_1
  +50 Alpha4_2 +50 Alpha4_2 +1 Alpha4_2 +10 Alpha4_2 +2 Alpha4_2 +55 Alpha3_1 +5 Alpha3_1 +4 Alpha3_1
  +10 Alpha3_1 +3 Alpha4_2 +6 Alpha3_1 +5 Alpha3_1 >= +3
 sh4_3_0: +5 t_Z3 +5 t_ww_11 +150 Alpha3_1 +100 Alpha4_3 +100 Alpha3_1 +50 Alpha4_3 +50 Alpha3_1 +100 Alpha3_1
  +50 Alpha3_1 +50 Alpha3_1 +2 Alpha3_1 +10 Alpha3_1 +5 Alpha3_1 +1 Alpha3_1 +3 Alpha3_1 +50 Alpha4_3
  +1 Alpha4_3 +10 Alpha4_3 +2 Alpha4_3 +10 Alpha3_1 +55 Alpha3_1 +6 Alpha3_1 +4 Alpha3_1 +4 Alpha3_1 +10 Alpha3_1
  +3 Alpha4_3 +6 Alpha3_1 +5 Alpha3_1 >= +4
 sh4_4_0: +4 t_Z4 +4 t_ww_12 +150 Alpha3_2 +150 Alpha4_4 +50 Alpha3_2 +100 Alpha3_2 +50 Alpha3_2 +100 Alpha3_2
  +100 Alpha4_4 +50 Alpha3_2 +50 Alpha3_2 +50 Alpha4_4 +2 Alpha3_2 +50 Alpha4_4 +1 Alpha3_2 +3 Alpha3_2
  +10 Alpha3_2 +50 Alpha4_4 +5 Alpha3_2 +10 Alpha4_4 +55 Alpha3_2 +6 Alpha3_2 +1 Alpha4_4 +4 Alpha3_2
  +10 Alpha3_2 +5 Alpha3_2 +2 Alpha4_4 +6 Alpha3_2 >= +3
 sh4_5_0: +5 t_Z5 +5 t_ww_13 +150 Alpha3_2 +100 Alpha4_5 +100 Alpha3_2 +100 Alpha3_2 +50 Alpha3_2 +100 Alpha3_2
  +50 Alpha4_5 +50 Alpha3_2 +50 Alpha3_2 +2 Alpha3_2 +1 Alpha3_2 +3 Alpha3_2 +10 Alpha3_2 +10 Alpha3_2
  +5 Alpha3_2 +5 Alpha3_2 +50 Alpha4_5 +10 Alpha4_5 +55 Alpha3_2 +6 Alpha3_2 +1 Alpha4_5 +4 Alpha3_2 +10 Alpha3_2
  +5 Alpha3_2 +2 Alpha4_5 +6 Alpha3_2 +6 Alpha3_2 >= +4
 sh4_6_0: +4 t_Z6 +4 t_ww_14 +150 Alpha3_3 +150 Alpha4_6 +100 Alpha3_3 +50 Alpha3_3 +100 Alpha3_3 +100 Alpha4_6
  +50 Alpha3_3 +10 Alpha3_3 +50 Alpha3_3 +50 Alpha4_6 +3 Alpha3_3 +1 Alpha3_3 +2 Alpha3_3 +50 Alpha4_6
  +50 Alpha4_6 +55 Alpha3_3 +5 Alpha3_3 +1 Alpha4_6 +10 Alpha3_3 +2 Alpha4_6 +5 Alpha3_3 +6 Alpha3_3 +10 Alpha4_6
  +4 Alpha3_3 +5 Alpha3_3 +3 Alpha4_6 +6 Alpha3_3 >= +3
 sh4_7_0: +5 t_Z7 +5 t_ww_15 +150 Alpha3_3 +100 Alpha4_7 +100 Alpha3_3 +50 Alpha4_7 +50 Alpha3_3 +100 Alpha3_3
  +50 Alpha3_3 +10 Alpha3_3 +50 Alpha3_3 +3 Alpha3_3 +50 Alpha4_7 +1 Alpha3_3 +2 Alpha3_3 +55 Alpha3_3
  +5 Alpha3_3 +1 Alpha4_7 +10 Alpha3_3 +10 Alpha4_7 +6 Alpha3_3 +2 Alpha4_7 +6 Alpha3_3 +4 Alpha3_3 +4 Alpha3_3
  +3 Alpha4_7 +5 Alpha3_3 +6 Alpha3_3 >= +4
 z0: +1 t_Z0 -1 Alpha2_0 -1 Alpha2_0 >= +0
 z0: +1 t_Z0 -1 Alpha3_0 -1 Alpha3_0 >= +0
 z0: +1 t_Z0 -1 t_ww_8 >= +0
 z1: +1 t_Z1 -1 Alpha2_0 -1 Alpha2_0 >= +0
 z1: +1 t_Z1 -1 Alpha3_0 -1 Alpha3_0 >= +0
 z1: +1 t_Z1 >= +0
 z2: +1 t_Z2 -1 Alpha2_0 -1 Alpha2_0 >= +0
 z2: +1 t_Z2 -1 Alpha3_1 -1 Alpha3_1 -1 Alpha3_1 >= +0
 z2: +1 t_Z2 >= +0
 z3: +1 t_Z3 -1 Alpha2_0 -1 Alpha2_0 >= +0
 z3: +1 t_Z3 -1 Alpha3_1 -1 Alpha3_1 -1 Alpha3_1 >= +0
 z3: +1 t_Z3 >= +0
 z4: +1 t_Z4 >= +0
 z4: +1 t_Z4 -1 Alpha3_2 -1 Alpha3_2 -1 Alpha3_2 -1 Alpha3_2 -1 Alpha3_2 >= +0
 z4: +1 t_Z4 >= +0
 z5: +1 t_Z5 >= +0
 z5: +1 t_Z5 -1 Alpha3_2 -1 Alpha3_2 -1 Alpha3_2 -1 Alpha3_2 -1 Alpha3_2 >= +0
 z5: +1 t_Z5 >= +0
 z6: +1 t_Z6 >= +0
 z6: +1 t_Z6 -1 Alpha3_3 -1 Alpha3_3 >= +0
 z6: +1 t_Z6 >= +0
 z7: +1 t_Z7 >= +0
 z7: +1 t_Z7 -1 Alpha3_3 -1 Alpha3_3 >= +0
 z7: +1 t_Z7 >= +0
 AlphaCon: +0.0854708212817118 t_Z0 +0.108563512905831 t_Z1 +0.108563512905831 t_Z2 +0.137895437971839 t_Z3
  +0.108563512905831 t_Z4 +0.137895437971839 t_Z5 +0.137895437971839 t_Z6 +0.175152326085278 t_Z7 <= +0.25
 w2_0: +1 t_ww_2 +1 Alpha2_0 +1 Alpha2_0 +1 Alpha2_0 +1 Alpha2_0 +1 Alpha2_0 +1 Alpha2_0 +1 Alpha2_0 +1 Alpha2_0
  +1 Alpha2_0 +1 Alpha2_0 +1 Alpha2_0 +1 Alpha2_0 +1 Alpha2_0 +1 Alpha2_0 +1 Alpha2_0 +1 Alpha2_0 +1 Alpha2_0
  +1 Alpha2_0 +1 Alpha2_0 +1 Alpha2_0 +1 Alpha2_0 +1 Alpha2_0 +1 Alpha2_0 +1 Alpha2_0 +1 Alpha2_0 +1 Alpha2_0
  +1 Alpha2_0 +1 Alpha2_0 +1 Alpha2_0 +1 Alpha2_0 +1 Alpha2_0 +1 Alpha2_0 +1 Alpha2_0 +1 Alpha2_0 = +1
 w2_1: +1 t_ww_3 +1 Alpha2_1 +1 Alpha2_1 +1 Alpha2_1 +1 Alpha2_1 +1 Alpha2_1 +1 Alpha2_1 +1 Alpha2_1 +1 Alpha2_1
  +1 Alpha2_1 +1 Alpha2_1 +1 Alpha2_1 +1 Alpha2_1 +1 Alpha2_1 +1 Alpha2_1 = +1
 w3_0: +1 t_ww_4 +1 Alpha3_0 +1 Alpha3_0 +1 Alpha3_0 +1 Alpha3_0 +1 Alpha3_0 +1 Alpha3_0 +1 Alpha3_0 +1 Alpha3_0
  +1 Alpha3_0 +1 Alpha3_0 +1 Alpha3_0 +1 Alpha3_0 +1 Alpha3_0 +1 Alpha3_0 +1 Alpha3_0 +1 Alpha3_0 +1 Alpha3_0
  +1 Alpha3_0 +1 Alpha3_0 +1 Alpha3_0 +1 Alpha3_0 +1 Alpha3_0 +1 Alpha3_0 +1 Alpha3_0 +1 Alpha3_0 +1 Alpha3_0
  = +1
 w3_1: +1 t_ww_5 +1 Alpha3_1 +1 Alpha3_1 +1 Alpha3_1 +1 Alpha3_1 +1 Alpha3_1 +1 Alpha3_1 +1 Alpha3_1 +1 Alpha3_1
  +1 Alpha3_1 +1 Alpha3_1 +1 Alpha3_1 +1 Alpha3_1 +1 Alpha3_1 +1 Alpha3_1 +1 Alpha3_1 +1 Alpha3_1 +1 Alpha3_1
  +1 Alpha3_1 +1 Alpha3_1 +1 Alpha3_1 +1 Alpha3_1 +1 Alpha3_1 +1 Alpha3_1 +1 Alpha3_1 +1 Alpha3_1 +1 Alpha3_1
  +1 Alpha3_1 +1 Alpha3_1 +1 Alpha3_1 +1 Alpha3_1 +1 Alpha3_1 +1 Alpha3_1 +1 Alpha3_1 +1 Alpha3_1 +1 Alpha3_1
  +1 Alpha3_1 = +1
 w3_2: +1 t_ww_6 +1 Alpha3_2 +1 Alpha3_2 +1 Alpha3_2 +1 Alpha3_2 +1 Alpha3_2 +1 Alpha3_2 +1 Alpha3_2 +1 Alpha3_2
  +1 Alpha3_2 +1 Alpha3_2 +1 Alpha3_2 +1 Alpha3_2 +1 Alpha3_2 +1 Alpha3_2 +1 Alpha3_2 +1 Alpha3_2 +1 Alpha3_2
  +1 Alpha3_2 +1 Alpha3_2 +1 Alpha3_2 +1 Alpha3_2 +1 Alpha3_2 +1 Alpha3_2 +1 Alpha3_2 +1 Alpha3_2 +1 Alpha3_2
  +1 Alpha3_2 +1 Alpha3_2 +1 Alpha3_2 +1 Alpha3_2 +1 Alpha3_2 +1 Alpha3_2 +1 Alpha3_2 +1 Alpha3_2 +1 Alpha3_2
  +1 Alpha3_2 +1 Alpha3_2 +1 Alpha3_2 +1 Alpha3_2 +1 Alpha3_2 +1 Alpha3_2 +1 Alpha3_2 = +1
 w3_3: +1 t_ww_7 +1 Alpha3_3 +1 Alpha3_3 +1 Alpha3_3 +1 Alpha3_3 +1 Alpha3_3 +1 Alpha3_3 +1 Alpha3_3 +1 Alpha3_3
  +1 Alpha3_3 +1 Alpha3_3 +1 Alpha3_3 +1 Alpha3_3 +1 Alpha3_3 +1 Alpha3_3 +1 Alpha3_3 +1 Alpha3_3 +1 Alpha3_3
  +1 Alpha3_3 +1 Alpha3_3 +1 Alpha3_3 +1 Alpha3_3 +1 Alpha3_3 +1 Alpha3_3 +1 Alpha3_3 +1 Alpha3_3 +1 Alpha3_3
  +1 Alpha3_3 +1 Alpha3_3 +1 Alpha3_3 +1 Alpha3_3 +1 Alpha3_3 +1 Alpha3_3 +1 Alpha3_3 +1 Alpha3_3 +1 Alpha3_3
  = +1
 w4_0: +1 t_ww_8 +1 Alpha4_0 +1 Alpha4_0 +1 Alpha4_0 +1 Alpha4_0 +1 Alpha4_0 +1 Alpha4_0 +1 Alpha4_0 +1 Alpha4_0
  +1 Alpha4_0 +1 Alpha4_0 +1 Alpha4_0 +1 Alpha4_0 +1 Alpha4_0 = +1
 w4_1: +1 t_ww_9 +1 Alpha4_1 +1 Alpha4_1 +1 Alpha4_1 +1 Alpha4_1 +1 Alpha4_1 +1 Alpha4_1 +1 Alpha4_1 +1 Alpha4_1
  +1 Alpha4_1 +1 Alpha4_1 +1 Alpha4_1 +1 Alpha4_1 = +1
 w4_2: +1 t_ww_10 +1 Alpha4_2 +1 Alpha4_2 +1 Alpha4_2 +1 Alpha4_2 +1 Alpha4_2 +1 Alpha4_2 +1 Alpha4_2
  +1 Alpha4_2 +1 Alpha4_2 +1 Alpha4_2 +1 Alpha4_2 +1 Alpha4_2 +1 Alpha4_2 +1 Alpha4_2 = +1
 w4_3: +1 t_ww_11 +1 Alpha4_3 +1 Alpha4_3 +1 Alpha4_3 +1 Alpha4_3 +1 Alpha4_3 +1 Alpha4_3 +1 Alpha4_3
  +1 Alpha4_3 +1 Alpha4_3 +1 Alpha4_3 +1 Alpha4_3 +1 Alpha4_3 = +1
 w4_4: +1 t_ww_12 +1 Alpha4_4 +1 Alpha4_4 +1 Alpha4_4 +1 Alpha4_4 +1 Alpha4_4 +1 Alpha4_4 +1 Alpha4_4
  +1 Alpha4_4 +1 Alpha4_4 +1 Alpha4_4 +1 Alpha4_4 = +1
 w4_5: +1 t_ww_13 +1 Alpha4_5 +1 Alpha4_5 +1 Alpha4_5 +1 Alpha4_5 +1 Alpha4_5 +1 Alpha4_5 +1 Alpha4_5
  +1 Alpha4_5 +1 Alpha4_5 +1 Alpha4_5 = +1
 w4_6: +1 t_ww_14 +1 Alpha4_6 +1 Alpha4_6 +1 Alpha4_6 +1 Alpha4_6 +1 Alpha4_6 +1 Alpha4_6 +1 Alpha4_6
  +1 Alpha4_6 +1 Alpha4_6 +1 Alpha4_6 +1 Alpha4_6 +1 Alpha4_6 +1 Alpha4_6 +1 Alpha4_6 = +1
 w4_7: +1 t_ww_15 +1 Alpha4_7 +1 Alpha4_7 +1 Alpha4_7 +1 Alpha4_7 +1 Alpha4_7 +1 Alpha4_7 +1 Alpha4_7
  +1 Alpha4_7 +1 Alpha4_7 +1 Alpha4_7 +1 Alpha4_7 = +1
Bounds
 0 <= t_Z0 <= 1
 0 <= t_Z1 <= 1
 0 <= t_Z2 <= 1
 0 <= t_Z3 <= 1
 0 <= t_Z4 <= 1
 0 <= t_Z5 <= 1
 0 <= t_Z6 <= 1
 0 <= t_Z7 <= 1
 0 <= t_ww_2 <= 6.71735791311927
 0 <= t_ww_3 <= 12.6923991085408
 0 <= t_ww_4 <= 0
 0 <= t_ww_5 <= 5.09943906201047
 0 <= t_ww_6 <= 0
 0 <= t_ww_7 <= 0
 0 <= t_ww_8 <= 2.01520737393578
 0 <= t_ww_9 <= 5.09943906201047
 0 <= t_ww_10 <= 2.01520737393578
 0 <= t_ww_11 <= 12.6923991085408
 0 <= t_ww_12 <= 2.01520737393578
 0 <= t_ww_13 <= 5.09943906201047
 0 <= t_ww_14 <= 0
 0 <= t_ww_15 <= 0
 0 <= Alpha2_0 <= 0
 0 <= Alpha2_1 <= 0
 0 <= Alpha3_0 <= 0
 0 <= Alpha3_1 <= 0
 0 <= Alpha3_2 <= 0
 0 <= Alpha4_6 <= 0
 0 <= Alpha2_0 <= 0
 0 <= Alpha2_1 <= 0
 0 <= Alpha3_0 <= 0
 0 <= Alpha3_1 <= 0
 0 <= Alpha3_2 <= 0
 0 <= Alpha3_3 <= 0
 0 <= Alpha4_0 <= 0.064486635965945
 0 <= Alpha4_1 <= 0
 0 <= Alpha4_2 <= 0.064486635965945
 0 <= Alpha4_3 <= 1.26923991085408
 0 <= Alpha4_4 <= 0.064486635965945
 0 <= Alpha4_5 <= 0.319068128446419
 0 <= Alpha4_6 <= 0
 0 <= Alpha4_7 <= 0
 0 <= Alpha2_0 <= 0
 0 <= Alpha2_1 <= 0
 0 <= Alpha3_0 <= 0
 0 <= Alpha3_1 <= 0
 0 <= Alpha3_2 <= 0
 0 <= Alpha3_3 <= 0
 0 <= Alpha4_7 <= 0
 0 <= Alpha2_0 <= 0
 0 <= Alpha2_1 <= 0
 0 <= Alpha3_0 <= 0
 0 <= Alpha3_1 <= 0
 0 <= Alpha3_2 <= 0
 0 <= Alpha3_3 <= 0
 0 <= Alpha2_0 <= 0
 0 <= Alpha2_1 <= 0
 0 <= Alpha3_0 <= 0
 0 <= Alpha3_3 <= 0
 0 <= Alpha2_0 <= 0
 0 <= Alpha2_0 <= 0
 0 <= Alpha3_2 <= 0
 0 <= Alpha2_0 <= 0
 0 <= Alpha3_0 <= 0
 0 <= Alpha3_1 <= 0
 0 <= Alpha2_0 <= 0
 0 <= Alpha3_1 <= 0
 0 <= Alpha2_0 <= 0
 0 <= Alpha2_0 <= 0
 0 <= Alpha2_1 <= 0
 0 <= Alpha3_2 <= 0
 0 <= Alpha2_1 <= 0
 0 <= Alpha2_1 <= 0
 0 <= Alpha3_2 <= 0
 0 <= Alpha3_0 <= 0
 0 <= Alpha3_0 <= 0
 0 <= Alpha2_0 <= 0
 0 <= Alpha2_0 <= 0
 0 <= Alpha2_0 <= 0
 0 <= Alpha3_0 <= 0
 0 <= Alpha2_0 <= 0
 0 <= Alpha2_0 <= 0
 0 <= Alpha2_1 <= 0
 0 <= Alpha2_1 <= 0
 0 <= Alpha2_1 <= 0
 0 <= Alpha3_0 <= 0
 0 <= Alpha3_1 <= 0
 0 <= Alpha3_1 <= 0
 0 <= Alpha3_2 <= 0
 0 <= Alpha3_2 <= 0
 0 <= Alpha3_2 <= 0
 0 <= Alpha3_0 <= 0
 0 <= Alpha3_0 <= 0
 0 <= Alpha3_3 <= 0
 0 <= Alpha4_6 <= 0
 0 <= Alpha3_3 <= 0
 0 <= Alpha3_0 <= 0
 0 <= Alpha3_0 <= 0
 0 <= Alpha3_0 <= 0
 0 <= Alpha3_0 <= 0
 0 <= Alpha3_1 <= 0
 0 <= Alpha3_1 <= 0
 0 <= Alpha3_1 <= 0
 0 <= Alpha3_3 <= 0
 0 <= Alpha3_3 <= 0
 0 <= Alpha3_3 <= 0
 0 <= Alpha4_6 <= 0
 0 <= Alpha3_1 <= 0
 0 <= Alpha3_2 <= 0
 0 <= Alpha3_1 <= 0
 0 <= Alpha3_1 <= 0
 0 <= Alpha3_3 <= 0
 0 <= Alpha4_1 <= 0
 0 <= Alpha4_7 <= 0
 0 <= Alpha3_2 <= 0
 0 <= Alpha2_0 <= 0
 0 <= Alpha2_0 <= 0
 0 <= Alpha2_0 <= 0
 0 <= Alpha2_0 <= 0
 0 <= Alpha3_3 <= 0
 0 <= Alpha3_2 <= 0
 0 <= Alpha3_2 <= 0
 0 <= Alpha3_2 <= 0
 0 <= Alpha3_0 <= 0
 0 <= Alpha3_3 <= 0
 0 <= Alpha3_3 <= 0
 0 <= Alpha3_3 <= 0
 0 <= Alpha3_2 <= 0
 0 <= Alpha3_2 <= 0
 0 <= Alpha3_2 <= 0
 0 <= Alpha3_2 <= 0
 0 <= Alpha2_0 <= 0
 0 <= Alpha2_0 <= 0
 0 <= Alpha2_0 <= 0
 0 <= Alpha4_6 <= 0
 0 <= Alpha3_2 <= 0
 0 <= Alpha3_3 <= 0
 0 <= Alpha3_3 <= 0
 0 <= Alpha3_1 <= 0
 0 <= Alpha3_3 <= 0
 0 <= Alpha3_2 <= 0
 0 <= Alpha3_3 <= 0
 0 <= Alpha3_2 <= 0
 0 <= Alpha4_7 <= 0
 0 <= Alpha4_6 <= 0
 0 <= Alpha4_6 <= 0
 0 <= Alpha3_0 <= 0
 0 <= Alpha3_3 <= 0
 0 <= Alpha3_3 <= 0
 0 <= Alpha3_3 <= 0
 0 <= Alpha2_0 <= 0
 0 <= Alpha4_7 <= 0
 0 <= Alpha4_7 <= 0
 0 <= Alpha3_3 <= 0
 0 <= Alpha4_1 <= 0
 0 <= Alpha4_1 <= 0
 0 <= Alpha3_1 <= 0
 0 <= Alpha2_1 <= 0
 0 <= Alpha2_1 <= 0
 0 <= Alpha3_3 <= 0
 0 <= Alpha3_3 <= 0
 0 <= Alpha4_7 <= 0
 0 <= Alpha4_7 <= 0
 0 <= Alpha3_3 <= 0
 0 <= Alpha3_2 <= 0
 0 <= Alpha3_2 <= 0
 0 <= Alpha3_2 <= 0
 0 <= Alpha3_2 <= 0
 0 <= Alpha4_6 <= 0
 0 <= Alpha4_6 <= 0
 0 <= Alpha3_0 <= 0
 0 <= Alpha3_0 <= 0
 0 <= Alpha3_0 <= 0
 0 <= Alpha3_2 <= 0
 0 <= Alpha3_2 <= 0
 0 <= Alpha3_2 <= 0
 0 <= Alpha3_2 <= 0
 0 <= Alpha3_2 <= 0
 0 <= Alpha3_3 <= 0
 0 <= Alpha3_3 <= 0
 0 <= Alpha3_1 <= 0
 0 <= Alpha3_1 <= 0
 0 <= Alpha3_1 <= 0
 0 <= Alpha3_1 <= 0
 0 <= Alpha3_2 <= 0
 0 <= Alpha3_2 <= 0
 0 <= Alpha3_2 <= 0
 0 <= Alpha3_2 <= 0
 0 <= Alpha3_2 <= 0
 0 <= Alpha3_3 <= 0
 0 <= Alpha3_3 <= 0
 0 <= Alpha4_7 <= 0
 0 <= Alpha4_7 <= 0
 0 <= Alpha3_3 <= 0
 0 <= Alpha3_3 <= 0
 0 <= Alpha3_3 <= 0
 0 <= Alpha3_2 <= 0
 0 <= Alpha3_2 <= 0
 0 <= Alpha3_2 <= 0
 0 <= Alpha3_2 <= 0
 0 <= Alpha3_3 <= 0
 0 <= Alpha3_3 <= 0
 0 <= Alpha3_1 <= 0
 0 <= Alpha3_1 <= 0
 0 <= Alpha3_1 <= 0
Binaries
 t_Z0 t_Z1 t_Z2 t_Z3 t_Z4 t_Z5 t_Z6 t_Z7
End
